Copyright (C) 2013-2015, Filipe Brandao
Build (method = -2)
  #dp: 2838
  Step-3' Graph: 73 vertices and 1136 arcs (0.00s)
  Step-4' Graph: 73 vertices and 1136 arcs (0.00s)
  #V4/#V3 = 1.00
  #A4/#A3 = 1.00
Ready! (0.00s)
Optimize a model with 136 rows, 1137 columns and 3273 nonzeros
Found heuristic solution: objective 287
Presolve removed 28 rows and 36 columns
Presolve time: 0.01s
Presolved: 108 rows, 1101 columns, 3176 nonzeros
Variable types: 0 continuous, 1101 integer (0 binary)
Optimize a model with 108 rows, 1101 columns and 3176 nonzeros
Presolved: 108 rows, 1101 columns, 3176 nonzeros

Root barrier log...

Ordering time: 0.00s

Barrier statistics:
 AA' NZ     : 1.695e+03
 Factor NZ  : 3.255e+03
 Factor Ops : 1.348e+05 (less than 1 second per iteration)
 Threads    : 1

                  Objective                Residual
Iter       Primal          Dual         Primal    Dual     Compl     Time
   0   4.57248349e+03 -1.58396203e+04  4.97e+04 2.22e-16  5.97e+01     0s
   1   1.40141577e+03 -5.37747524e+03  8.36e+03 5.55e-16  1.09e+01     0s
   2   4.30506830e+02 -1.97080415e+03  4.83e+02 1.55e-15  1.43e+00     0s
   3   3.12484446e+02 -6.62155392e+02  2.68e+01 1.55e-15  4.48e-01     0s
   4   2.33267837e+02 -1.05305691e+02  6.75e+00 7.36e-16  1.53e-01     0s
   5   2.17249802e+02  1.47469046e+01  4.09e+00 8.88e-16  9.14e-02     0s
   6   1.99615554e+02  9.90186163e+01  2.50e+00 4.84e-16  4.54e-02     0s
   7   1.85889812e+02  1.45998700e+02  8.91e-01 6.66e-16  1.79e-02     0s
   8   1.79770633e+02  1.68760976e+02  2.31e-01 7.75e-16  4.93e-03     0s
   9   1.77835063e+02  1.71567369e+02  8.40e-02 5.77e-16  2.80e-03     0s
  10   1.76750610e+02  1.74589899e+02  1.91e-02 5.33e-16  9.66e-04     0s
  11   1.76312897e+02  1.75819152e+02  2.67e-03 6.11e-16  2.21e-04     0s
  12   1.76210312e+02  1.76172059e+02  2.38e-04 5.67e-16  1.71e-05     0s
  13   1.76199039e+02  1.76191943e+02  2.46e-05 5.73e-16  3.17e-06     0s
  14   1.76197066e+02  1.76196857e+02  4.09e-07 5.55e-16  9.35e-08     0s
  15   1.76196970e+02  1.76196970e+02  3.58e-12 7.11e-16  6.38e-13     0s

Barrier solved model in 15 iterations and 0.01 seconds
Optimal objective 1.76196970e+02


Root relaxation: objective 1.761970e+02, 133 iterations, 0.01 seconds

    Nodes    |    Current Node    |     Objective Bounds      |     Work
 Expl Unexpl |  Obj  Depth IntInf | Incumbent    BestBd   Gap | It/Node Time

     0     0  176.19697    0   44  287.00000  176.19697  38.6%     -    0s
H    0     0                     179.0000000  176.19697  1.57%     -    0s
H    0     0                     178.0000000  176.19697  1.01%     -    0s
H    0     0                     177.0000000  176.19697  0.45%     -    0s

Explored 0 nodes (265 simplex iterations) in 0.03 seconds
Thread count was 1 (of 4 available processors)

Optimal solution found (tolerance 0.00e+00)
Best objective 1.770000000000e+02, best bound 1.770000000000e+02, gap 0.0%
Preprocessing time: 0.00 seconds
Gurobi run time: 0.03 seconds
Total run time: 0.03 seconds
Objective: 177
Solution:
11 x [i=1, i=50]
1 x [i=1, i=52]
7 x [i=2, i=49]
4 x [i=3, i=48]
1 x [i=3, i=49]
4 x [i=4, i=47]
1 x [i=4, i=49]
5 x [i=5, i=46]
1 x [i=5, i=52]
6 x [i=6, i=45]
3 x [i=6, i=51]
4 x [i=7, i=44]
4 x [i=8, i=43]
9 x [i=9, i=42]
9 x [i=10, i=41]
7 x [i=11, i=40]
3 x [i=12, i=39]
4 x [i=13, i=38]
1 x [i=13, i=63, i=63]
5 x [i=14, i=37]
2 x [i=14, i=62, i=63]
4 x [i=15, i=36]
3 x [i=16, i=35]
1 x [i=16, i=61, i=62]
6 x [i=17, i=34]
5 x [i=18, i=33]
1 x [i=18, i=60, i=61]
2 x [i=19, i=32]
1 x [i=19, i=60, i=60]
5 x [i=20, i=31]
4 x [i=21, i=30]
1 x [i=21, i=63]
8 x [i=22, i=29]
5 x [i=23, i=28]
3 x [i=24, i=27]
3 x [i=25, i=26]
5 x [i=26, i=54, i=59]
2 x [i=27, i=56, i=56]
2 x [i=28, i=54, i=57]
1 x [i=31, i=52, i=56]
2 x [i=32, i=52, i=55]
3 x [i=32, i=53, i=54]
1 x [i=34, i=44, i=61]
1 x [i=34, i=51, i=54]
1 x [i=36, i=42, i=61]
2 x [i=36, i=43, i=60]
2 x [i=36, i=51, i=52]
1 x [i=39, i=56, i=62]
2 x [i=39, i=39, i=61]
2 x [i=40, i=62, i=62, i=63]
2 x [i=51, i=58, i=58, i=60]
1 x [i=52, i=58, i=58, i=59]
1 x [i=54, i=57, i=58, i=58]
1 x [i=56, i=56, i=56, i=59]
1 x [i=62, i=63, i=63]
